[[72, 81, 71, 80, 70, 69, 78, 77, 79, 88, 89, 90, 99, 98, 97, 96, 87, 86, 95, 94, 93, 92, 91, 82, 83, 73, 84, 85, 76, 75, 67, 68, 66, 74, 65, 64, 55, 56, 57, 58, 59, 49, 60, 51, 50, 40, 39, 48, 47, 46], [38, 37, 29, 28, 30, 31, 19, 21, 22, 20, 13, 11, 10, 2, 12, 3, 4, 14, 5, 6, 7, 8, 9, 18, 17, 16, 15, 23, 24, 25, 26, 27, 35, 36, 44, 34, 33, 32, 41, 42, 43, 45, 54, 52, 53, 63, 61, 62]]